NAME : si175Preorder.4509.tour
COMMENT : Length = 4509
COMMENT : Found by LKH [Keld Helsgaun] Thu Apr 23 18:18:09 2020
TYPE : TOUR
DIMENSION : 175
TOUR_SECTION
1
2
3
20
21
22
63
65
24
23
25
26
27
4
32
119
31
30
29
28
67
64
66
68
69
70
71
72
73
74
75
76
77
95
109
108
94
107
93
92
91
106
105
90
104
89
103
88
62
61
59
60
58
56
57
55
53
52
54
87
86
102
101
100
99
85
148
147
159
114
113
160
171
170
169
162
158
115
157
116
156
161
167
166
117
165
155
154
153
164
163
152
110
111
149
150
151
118
175
120
134
122
123
124
125
126
127
128
129
130
131
132
133
121
140
146
145
144
143
135
141
142
139
138
137
136
174
173
172
168
112
96
78
79
38
80
81
98
97
33
34
36
35
37
39
40
41
82
42
43
44
83
45
46
84
47
48
49
50
51
19
18
17
16
15
14
13
12
11
10
9
8
7
5
6
-1
EOF
